QBPP_HJ-_25_025_20_5
25 56 1982
27 30 49 5 22 22 9 25 4 26 9 8 50 13 44 24 39 5 27 11 2 41 42 15 4
     0     0     0     0     0   -73   -67     0     0     0     0     0     0     0     0     0     0     0     0     0     0   -86     0   -37   -83
     0     0     0     0     0   -64     0   -16   -11   -60   -12   -30     0     0     0     0     0   -22     0     0     0     0   -41     0     0
     0     0     0     0     0   -60     0     0   -25     0     0   -16   -85     0     0     0   -50     0     0   -28   -10     0     0     0   -78
     0     0     0     0     0     0     0     0   -52     0     0     0     0   -99   -69     0   -56     0    -1   -15     0   -95     0     0     0
     0     0     0     0     0     0     0   -50     0     0   -45     0     0     0     0   -27    -3   -32     0     0   -82     0   -95   -69   -16
   -73   -64   -60     0     0     0     0   -41     0   -51     0     0     0     0  -100     0   -42     0     0     0   -92     0     0     0     0
   -67     0     0     0     0     0     0   -62     0     0     0     0     0     0   -66     0     0     0     0   -45     0   -82     0     0     0
     0   -16     0     0   -50   -41   -62     0     0   -73   -47     0   -33     0     0     0   -50     0     0     0     0     0     0     0   -51
     0   -11   -25   -52     0     0     0     0     0     0     0   -50     0     0     0     0     0     0   -42     0     0     0     0     0     0
     0   -60     0     0     0   -51     0   -73     0     0     0     0     0   -17     0     0     0     0     0    -2   -38   -33     0     0     0
     0   -12     0     0   -45     0     0   -47     0     0     0   -51     0     0     0     0   -71   -93   -88     0     0     0     0     0     0
     0   -30   -16     0     0     0     0     0   -50     0   -51     0     0     0   -28   -50   -62     0     0   -38     0     0     0     0     0
     0     0   -85     0     0     0     0   -33     0     0     0     0     0   -83     0     0     0     0     0     0   -43     0     0     0     0
     0     0     0   -99     0     0     0     0     0   -17     0     0   -83     0     0     0   -27     0     0     0   -66     0     0   -24   -68
     0     0     0   -69     0  -100   -66     0     0     0     0   -28     0     0     0     0     0     0     0     0     0   -68     0   -77   -40
     0     0     0     0   -27     0     0     0     0     0     0   -50     0     0     0     0     0     0     0   -99     0     0     0     0     0
     0     0   -50   -56    -3   -42     0   -50     0     0   -71   -62     0   -27     0     0     0     0   -90     0   -95     0     0     0     0
     0   -22     0     0   -32     0     0     0     0     0   -93     0     0     0     0     0     0     0     0    -4   -52     0     0     0   -12
     0     0     0    -1     0     0     0     0   -42     0   -88     0     0     0     0     0   -90     0     0     0   -42     0     0     0     0
     0     0   -28   -15     0     0   -45     0     0    -2     0   -38     0     0     0   -99     0    -4     0     0     0   -40     0   -77     0
     0     0   -10     0   -82   -92     0     0     0   -38     0     0   -43   -66     0     0   -95   -52   -42     0     0     0     0     0     0
   -86     0     0   -95     0     0   -82     0     0   -33     0     0     0     0   -68     0     0     0     0   -40     0     0   -70     0     0
     0   -41     0     0   -95     0     0     0     0     0     0     0     0     0     0     0     0     0     0     0     0   -70     0     0     0
   -37     0     0     0   -69     0     0     0     0     0     0     0     0   -24   -77     0     0     0     0   -77     0     0     0     0     0
   -83     0   -78     0   -16     0     0   -51     0     0     0     0     0   -68   -40     0     0   -12     0     0     0     0     0     0     0
